webassembly/ejemplos_dzn/13/folder13_json_92.dzn
TERM = { '.', 's(2)', 's(4)', 'local_0', 'local_1', 's(1)', 's(0)', 's(3)', 'in_0'};
null = '.';
s = 13;
n = 11;
ndeps = 4;
max_registers_sz = 4;
NR = 1;
registers = [|'local_1', 'in_0'|];
dependencies = [|'call[function_index(0)]_1', 'i32.load_2', |'i32.load_2', 'i32.store_9', |'i32.store_9', 'i32.load16_s_10', |'i32.load16_s_10', 'i32.store16_11'|];
GET_ENUM = { GET1, GET2, GET3, GET4, GET5};
SET_ENUM = { SET1, SET2, SET3, SET4, SET5};
TEE_ENUM = { TEE1, TEE2, TEE3, TEE4, TEE5};
N = 7;
OP = { 'call[function_index(0)]_1', 'i32.load_2', 'i32.add_0', 'i32.store_9', 'i32.load16_s_10', 'i32.store16_11', 'local.get_0' };
in_ops = [1, 1, 2, 2, 1, 2, 0 ];
out_ops = [2, 1, 1, 0, 1, 0, 1 ];
in1 = ['in_0', 's(1)', 'local_0', 's(3)', 'local_0', 's(4)', '.' ];
in2 = ['.', '.', 'local_0', 'local_0', '.', 's(2)', '.' ];
in3 = ['.', '.', '.', '.', '.', '.', '.' ];
out1 = ['s(1)', 's(2)', 's(3)', '.', 's(4)', '.', 'local_0' ];
out2 = ['s(0)', '.', '.', '.', '.', '.', '.' ];
out3 = ['.', '.', '.', '.', '.', '.', '.' ];
comm = [false, false, true, false, false, false, false ];
gas = [1, 1, 1, 1, 1, 1, 1 ];
sz = [1, 1, 1, 1, 1, 1, 1 ];
stor = [true, false, false, true, false, true, false ];
lb = [ 1, 1, 1, 1, 1, 1, 1 ];
ub = [ 13, 13, 13, 13, 13, 13, 13 ];
startstack = [ 'in_0', null, null, null, null, null, null, null, null, null, null ];
endstack = [ 'local_0', 's(0)', null, null, null, null, null, null, null, null, null ];
